24
13
14 21 12 4 23 11 19 22 1 17 5
0 14 15 19 4 1 2 22 16 18 10 5 23 3 9
7 15 12 9 5 16 20 2 14 23 21 18 17 13 11 3 0 10 6 8 22 4
17 11 1 14 19 20 8 10 5 23 15 12 4 13 6 22 21 2 7 0 18
5 6 3 23 13 10 12 20
10 23 16 18 17 21 3 0 1 7 5 12 8
19 2 4 9 16 15 17 12 8 10 14 0 11 5 22
19 7 0 1 20 13 16 22 11 17 9 3 10
21 4 3 20 9 15 10 2 0 14 19 17 18 23 1 12 5 16 8
8 14 4 23 2 11 19 6 12 5 20 21 3 18 15 7 0 1
16 15 19 20 14 8 4 6 11
6 5 21 13 2 19 18 10 20 9 7 23 4 16
17 22 19 3 14 2 18
